unknown
(model
; cardinality of BoundSet is 2
(declare-sort BoundSet 0)
; rep: @uc_BoundSet_0
; rep: @uc_BoundSet_1
; cardinality of UnboundSet is 1
(declare-sort UnboundSet 0)
(declare-fun groundTerm_3 () UnboundSet)
(define-fun IsInBlackTrunks ((BOUND_VARIABLE_460 BoundSet)) Bool true)
(define-fun IsBouncedOnWetTrampoline ((BOUND_VARIABLE_460 BoundSet)) Bool true)
(define-fun IsPlayedOn ((BOUND_VARIABLE_472 BoundSet) (BOUND_VARIABLE_473 BoundSet)) Bool false)
(define-fun IsOutdoors ((BOUND_VARIABLE_460 BoundSet)) Bool false)
)
sat
(model
; cardinality of BoundSet is 1
(declare-sort BoundSet 0)
; rep: @uc_BoundSet_0
; cardinality of UnboundSet is 1
(declare-sort UnboundSet 0)
(declare-fun groundTerm_10 () UnboundSet)
(define-fun IsInBlackTrunks ((BOUND_VARIABLE_541 BoundSet)) Bool true)
(define-fun IsBouncedOnWetTrampoline ((BOUND_VARIABLE_541 BoundSet)) Bool true)
(define-fun IsPlayedOn ((BOUND_VARIABLE_548 BoundSet) (BOUND_VARIABLE_549 BoundSet)) Bool true)
(define-fun IsOutdoors ((BOUND_VARIABLE_541 BoundSet)) Bool false)
)
